98 100
22 1 1
86 57 1
8 3 2
6 30 2
72 56 1
77 79 1
15 14 1
2 6 1
84 74 1
30 12 1
33 37 1
11 97 1
44 69 1
74 22 1
31 45 1
44 44 1
20 12 1
4 19 1
13 7 1
41 46 1
8 30 1
7 27 1
50 10 1
7 9 1
21 46 1
11 16 1
20 36 1
18 50 1
47 28 1
28 13 1
3 23 1
93 3 1
85 70 1
6 21 1
46 22 1
25 77 1
35 26 1
46 41 1
2 33 1
80 43 1
46 42 1
48 23 1
19 5 1
28 31 1
79 20 1
11 77 1
48 39 1
98 30 1
4 10 1
36 22 1
38 34 1
28 94 1
100 61 1
23 39 1
93 42 1
80 14 1
71 25 1
21 17 1
68 11 1
25 48 1
77 99 1
32 7 1
30 41 1
41 44 1
9 36 1
3 72 1
17 33 1
18 2 1
67 34 1
37 23 1
16 37 1
8 21 1
7 96 1
87 48 1
26 3 1
9 67 1
23 76 1
38 35 1
48 30 1
21 45 1
1 48 1
7 89 1
32 79 1
95 99 1
41 43 1
37 44 1
27 20 1
87 16 1
42 49 1
29 15 1
35 32 1
29 43 1
5 18 1
82 99 1
3 6 1
38 33 1
30 47 1
47 44 1
100 100 
100 100 
100 100 
100 100 
100 100 
100 100 
100 100 
100 100 
100 100 
100 100 
100 100 
100 100 
100 100 
100 100 
100 100 
100 100 
100 100 
100 100 
100 100 
100 100 
100 100 
100 100 
100 100 
100 100 
100 100 
100 100 
100 100 
100 100 
100 100 
100 100 
100 100 
100 100 
100 100 
100 100 
100 100 
100 100 
100 100 
100 100 
100 100 
100 100 
100 100 
100 100 
100 100 
100 100 
100 100 
100 100 
100 100 
100 100 
100 100 
100 100 
100 100 
100 100 
100 100 
100 100 
100 100 
100 100 
100 100 
100 100 
100 100 
100 100 
100 100 
100 100 
100 100 
100 100 
100 100 
100 100 
100 100 
100 100 
100 100 
100 100 
100 100 
100 100 
100 100 
100 100 
100 100 
100 100 
100 100 
100 100 
100 100 
100 100 
100 100 
100 100 
100 100 
100 100 
100 100 
100 100 
100 100 
100 100 
100 100 
100 100 
100 100 
100 100 
100 100 
100 100 
100 100 
100 100 
100 100 
100 100 
100 100 
100 100 
100 100 
